33D32945 STP File, STP Format Version 1.0

SECTION Comments
Name "edge_n10_d4_s14"
Problem "Euclidean Steiner Tree Problem"
Remark "Generated with STPGenerator. 4 dimensions."
END

SECTION Graph
Nodes 10
END

SECTION Coordinates
DDDD 0 0.9994984996 0.9994984996 0.9994984996 0.9994984996
DDDD 1 0.2633149048 0.2633149048 0.2633149048 0.2633149048
DDDD 2 0.2158478607 0.2158478607 0.2158478607 0.2158478607
DDDD 3 0.4602220480 0.4602220480 0.4602220480 0.4602220480
DDDD 4 0.0529571777 0.0529571777 0.0529571777 0.0529571777
DDDD 5 0.5661688692 0.5661688692 0.5661688692 0.5661688692
DDDD 6 0.0288339364 0.0288339364 0.0288339364 0.0288339364
DDDD 7 0.6024998616 0.6024998616 0.6024998616 0.6024998616
DDDD 8 0.7466238550 0.7466238550 0.7466238550 0.7466238550
DDDD 9 0.6549854328 0.6549854328 0.6549854328 0.6549854328
END
